p cep 620 3992
1 7
1 8
1 13
1 22
1 24
1 26
1 28
1 30
1 37
1 43
1 47
1 50
1 53
1 54
1 60
1 61
1 65
2 9
2 14
2 19
2 20
2 23
2 27
2 32
2 33
2 37
2 38
2 43
2 48
2 51
2 55
2 58
2 62
2 65
3 7
3 10
3 13
3 18
3 20
3 23
3 24
3 32
3 35
3 39
3 43
3 51
3 53
3 55
3 57
3 60
3 62
3 63
3 64
3 65
4 7
4 8
4 10
4 13
4 24
4 27
4 35
4 39
4 45
4 51
4 54
4 60
6 56
7 8
7 13
7 14
7 18
7 22
7 23
7 24
7 37
7 39
7 42
7 47
7 54
7 57
7 60
7 62
7 65
8 9
8 10
8 13
8 20
8 24
8 27
8 28
8 33
8 40
8 42
8 54
8 57
8 60
8 62
9 20
9 28
9 33
9 37
9 43
9 54
9 62
10 18
10 19
10 28
10 29
10 48
10 51
10 54
10 56
10 60
10 65
11 35
11 54
12 46
12 52
12 66
13 24
13 26
13 28
13 35
13 37
13 39
13 43
13 53
13 54
13 57
13 60
13 61
13 63
13 65
14 20
14 22
14 23
14 31
14 37
14 43
14 47
14 50
14 57
14 58
15 36
15 46
15 59
18 21
18 22
18 23
18 31
18 38
18 42
18 47
18 49
18 50
18 55
18 58
18 62
18 64
18 65
19 29
19 34
19 38
19 55
19 62
19 65
20 23
20 27
20 28
20 32
20 33
20 51
20 54
20 58
20 60
20 62
20 63
20 65
20 66
21 22
21 31
21 47
21 49
21 50
21 53
21 64
22 23
22 24
22 27
22 30
22 31
22 38
22 39
22 47
22 49
22 50
22 53
22 55
22 57
22 58
22 61
22 62
22 65
23 26
23 30
23 31
23 32
23 38
23 39
23 43
23 47
23 48
23 49
23 50
23 53
23 55
23 58
23 61
23 62
23 64
23 65
23 67
24 54
24 57
24 60
24 62
24 65
25 28
25 54
26 28
26 30
26 39
26 43
26 47
26 49
26 50
26 53
26 54
26 55
26 61
26 65
26 67
27 33
27 54
27 57
27 62
28 30
28 32
28 35
28 39
28 43
28 48
28 50
28 51
28 53
28 54
28 57
28 60
28 61
28 63
28 65
29 41
29 45
30 32
30 47
30 49
30 50
30 53
30 55
30 61
30 63
30 64
30 65
31 47
31 58
31 64
32 39
32 43
32 48
32 50
32 51
32 54
32 57
32 60
32 61
32 62
32 63
32 65
33 37
33 38
33 47
33 54
33 62
34 45
34 56
34 65
35 43
35 48
35 51
35 54
36 41
36 44
36 46
37 43
38 40
38 47
38 49
38 55
38 62
38 64
38 65
39 43
39 45
39 48
39 51
39 53
39 54
39 57
39 60
39 61
39 65
40 42
41 44
41 51
41 56
42 54
43 48
43 50
43 53
43 54
43 57
43 60
43 61
43 63
43 64
43 65
44 48
44 51
44 56
45 48
45 56
46 59
47 49
47 50
47 53
47 55
47 58
47 61
47 64
47 65
47 67
48 51
48 54
48 57
48 60
48 63
49 50
49 53
49 55
49 58
49 61
49 64
49 65
50 53
50 54
50 55
50 57
50 58
50 61
50 64
50 65
51 53
51 54
51 60
51 61
51 63
53 54
53 55
53 61
53 67
54 57
54 60
54 61
54 63
55 61
55 64
55 65
56 60
58 62
58 65
60 62
60 63
60 65
61 63
61 65
61 67
62 65
63 66
64 65
68 69
68 73
68 77
68 80
68 87
68 97
68 98
68 104
68 106
68 112
68 117
68 118
68 119
69 72
69 73
69 77
69 80
69 85
69 87
69 90
69 91
69 92
69 94
69 97
69 98
69 100
69 103
69 104
69 106
69 107
69 112
69 115
69 116
69 117
69 118
69 119
69 124
70 71
70 72
70 74
70 79
70 86
70 92
70 100
70 102
70 109
70 126
70 127
71 75
71 82
71 100
71 108
71 116
72 74
72 75
72 86
72 88
72 92
72 100
72 109
72 110
72 112
72 116
72 123
72 127
72 128
73 77
73 80
73 85
73 87
73 91
73 93
73 97
73 98
73 103
73 104
73 106
73 115
73 117
73 118
73 119
73 124
74 75
74 79
74 86
74 92
74 100
74 102
74 109
74 120
74 123
74 126
74 127
74 128
75 82
75 84
75 85
75 86
75 89
75 92
75 100
75 106
75 108
75 109
75 110
75 112
75 113
75 115
75 116
75 118
75 120
75 128
77 80
77 85
77 87
77 91
77 94
77 97
77 98
77 103
77 104
77 106
77 112
77 116
77 117
77 118
77 119
77 124
78 112
78 128
79 126
80 87
80 94
80 97
80 98
80 106
80 116
80 117
80 118
80 119
82 86
82 92
82 95
82 100
82 113
82 128
83 86
83 95
83 100
83 102
83 107
83 115
83 116
83 121
84 85
84 90
84 92
84 100
84 112
84 113
84 115
84 117
85 91
85 93
85 97
85 117
85 124
86 92
86 95
86 100
86 106
86 107
86 112
86 116
86 120
86 128
87 97
87 98
87 124
88 89
88 109
88 112
88 128
89 92
89 94
89 97
89 102
89 109
89 112
89 115
89 124
90 97
90 100
90 101
90 107
90 109
90 112
90 113
90 115
90 117
90 124
91 93
91 97
91 98
91 103
91 115
91 117
91 122
92 94
92 95
92 100
92 107
92 109
92 110
92 112
92 115
92 116
92 120
92 121
92 128
93 104
93 117
93 122
94 97
94 98
94 106
94 112
94 114
94 119
94 124
95 100
95 115
96 105
97 98
97 103
97 104
97 106
97 112
97 118
97 119
97 124
98 106
98 117
98 118
98 119
98 124
99 126
99 127
100 108
100 109
100 110
100 112
100 113
100 116
100 120
100 121
100 123
100 127
100 128
101 115
102 109
102 113
103 122
104 106
104 117
104 118
104 119
106 112
106 114
106 116
106 117
106 118
106 119
106 124
107 112
107 115
107 116
107 119
109 112
109 116
109 127
109 128
110 121
110 124
112 113
112 115
112 116
112 117
112 119
112 128
115 117
116 120
116 128
117 124
118 119
119 124
120 128
123 125
126 127
127 128
129 131
129 132
129 133
129 134
129 140
129 151
129 156
129 161
129 164
129 292
130 131
130 139
130 146
130 151
130 167
131 133
131 137
131 164
132 134
132 157
132 158
132 161
132 164
132 165
133 139
133 142
133 143
133 146
133 148
133 156
133 160
133 161
134 150
134 151
134 157
134 164
134 165
136 145
136 146
136 147
136 153
136 160
136 167
137 143
137 146
137 160
138 144
138 160
139 142
139 143
139 146
139 148
139 153
139 156
139 163
139 164
139 167
140 150
140 151
140 161
140 164
142 146
142 167
143 146
143 167
144 149
145 152
145 153
145 160
146 151
146 156
146 160
146 161
146 167
148 156
148 160
148 166
150 151
150 158
150 161
150 164
150 165
151 156
151 161
151 162
151 164
153 159
153 160
153 163
153 167
156 162
158 161
158 165
159 160
161 165
168 170
168 174
168 175
168 176
168 179
168 181
168 182
168 185
168 191
168 193
168 194
168 197
168 199
168 202
169 178
170 175
170 176
170 179
170 181
170 182
170 183
170 185
170 194
170 197
170 199
170 200
170 202
170 203
171 172
171 175
171 177
171 187
171 189
171 194
171 196
171 197
171 199
171 201
171 203
172 174
172 175
172 177
172 181
172 187
172 189
172 194
172 196
172 197
172 201
172 203
173 174
173 180
173 191
173 197
173 200
173 201
174 177
174 180
174 181
174 187
174 188
174 191
174 193
174 194
174 197
174 199
174 201
174 203
175 176
175 177
175 179
175 180
175 181
175 183
175 185
175 187
175 188
175 194
175 195
175 196
175 197
175 199
175 200
175 201
175 203
176 179
176 180
176 181
176 182
176 183
176 192
176 194
176 197
176 202
176 203
177 180
177 185
177 187
177 188
177 194
177 196
177 197
177 200
177 201
177 203
178 184
178 190
178 192
179 182
179 183
179 184
179 187
179 192
179 194
179 200
179 202
179 203
180 181
180 185
180 187
180 188
180 191
180 197
180 199
180 200
180 201
180 203
181 185
181 187
181 194
181 197
181 199
181 202
181 203
182 194
182 202
183 195
183 200
184 190
184 192
185 194
185 197
185 199
185 200
185 201
185 203
186 204
187 188
187 191
187 194
187 196
187 197
187 200
187 201
188 193
188 197
188 199
188 200
188 201
188 203
189 194
189 203
190 192
190 195
191 197
192 195
192 202
192 204
193 199
194 201
194 203
195 200
196 201
196 203
197 199
197 200
197 201
197 203
199 200
199 203
200 203
201 203
205 239
205 247
206 211
206 213
206 237
206 244
206 246
208 234
209 225
209 232
209 238
210 222
211 219
211 227
211 241
211 244
212 231
213 220
213 223
213 229
213 231
213 237
213 246
214 216
214 230
214 237
214 247
214 248
216 230
217 226
218 227
218 235
218 244
218 248
219 222
219 229
219 237
219 240
219 241
220 225
220 235
221 230
221 239
222 225
222 241
222 244
223 241
225 238
227 234
227 235
227 236
227 237
227 241
229 237
229 240
230 237
230 239
230 247
230 439
231 234
231 236
231 241
232 238
232 246
234 237
234 241
235 244
236 241
236 246
237 238
237 240
237 241
237 247
238 246
240 248
241 244
242 245
250 254
250 255
250 259
250 265
250 270
250 272
250 275
250 281
250 301
250 306
250 319
250 322
251 263
251 275
251 276
251 281
251 286
251 292
251 326
252 264
252 296
253 254
253 260
253 267
253 274
253 275
253 277
253 279
253 280
253 282
253 286
253 292
253 294
253 300
253 304
253 307
253 309
253 310
253 322
253 325
254 260
254 261
254 265
254 266
254 267
254 269
254 279
254 280
254 282
254 284
254 291
254 292
254 293
254 300
254 304
254 309
254 310
254 311
254 315
254 317
254 318
254 319
254 320
254 322
254 324
255 256
255 260
255 268
255 270
255 272
255 274
255 275
255 277
255 281
255 285
255 286
255 307
255 308
255 322
255 325
255 326
256 265
256 276
256 296
257 281
257 288
258 271
258 289
258 308
259 275
259 281
259 297
259 308
260 261
260 265
260 267
260 268
260 269
260 270
260 277
260 280
260 282
260 284
260 286
260 291
260 292
260 293
260 296
260 300
260 304
260 307
260 309
260 310
260 311
260 314
260 315
260 317
260 318
260 319
260 322
260 324
260 325
260 326
261 264
261 266
261 269
261 280
261 282
261 286
261 291
261 292
261 293
261 309
261 314
261 315
261 317
261 318
261 320
261 322
261 324
261 325
262 263
262 281
262 297
262 308
263 264
263 270
263 275
263 276
263 281
263 323
264 270
264 274
264 275
264 276
264 281
264 286
264 296
264 301
264 306
264 308
264 315
264 316
264 318
264 325
264 326
265 274
265 277
265 281
265 282
265 284
265 286
265 292
265 309
265 314
265 319
265 322
265 325
265 326
266 267
266 269
266 279
266 282
266 292
266 309
266 311
267 268
267 269
267 279
267 280
267 282
267 284
267 291
267 292
267 293
267 296
267 309
267 311
267 315
267 318
267 320
267 322
267 324
268 275
268 277
268 284
268 292
268 307
268 309
268 315
268 318
268 319
269 279
269 280
269 282
269 291
269 292
269 293
269 300
269 304
269 307
269 309
269 310
269 311
269 315
269 317
269 318
269 320
269 322
269 324
270 274
270 275
270 281
270 283
270 291
270 301
270 313
270 326
272 322
274 275
274 277
274 292
274 296
274 307
274 309
275 277
275 281
275 286
275 292
275 304
275 306
275 308
275 309
275 313
275 316
275 318
275 325
275 326
276 281
276 283
276 294
276 313
277 279
277 281
277 285
277 286
277 292
277 309
277 313
277 316
277 322
277 325
278 281
279 280
279 282
279 286
279 292
279 293
279 300
279 304
279 309
279 320
280 282
280 291
280 292
280 293
280 300
280 304
280 309
280 310
280 315
281 283
281 286
281 297
281 308
281 313
281 322
281 323
281 325
282 284
282 286
282 291
282 292
282 300
282 304
282 307
282 309
282 310
282 311
282 320
282 325
284 291
284 292
284 293
284 304
284 310
284 311
284 315
284 317
284 322
284 324
285 292
285 296
285 307
286 291
286 292
286 293
286 304
286 306
286 309
286 314
286 316
286 318
286 322
286 325
291 292
291 293
291 300
291 302
291 304
291 309
291 315
291 317
291 320
291 322
292 293
292 300
292 302
292 304
292 307
292 309
292 310
292 311
292 314
292 315
292 317
292 318
292 319
292 320
292 322
292 325
292 326
293 304
293 309
293 311
293 314
293 315
293 320
293 322
293 324
293 325
296 324
296 326
297 308
297 323
300 304
300 309
300 310
300 315
300 320
301 313
301 319
302 307
302 309
304 309
304 310
304 315
304 317
304 320
307 309
307 315
307 318
307 319
307 320
307 322
307 325
309 311
309 313
309 314
309 315
309 316
309 317
309 318
309 319
309 320
309 322
309 324
309 325
309 326
311 315
311 320
314 322
314 325
315 317
315 320
316 326
317 320
318 319
318 324
318 325
319 322
319 325
322 324
322 325
322 326
327 338
327 350
327 353
327 354
327 358
327 359
327 361
327 365
327 372
327 375
327 380
327 382
327 383
327 386
327 387
327 388
327 392
327 394
327 396
328 329
328 331
328 333
328 335
328 340
328 346
328 356
328 362
328 363
328 366
328 368
328 370
328 371
328 372
328 373
328 379
328 383
328 384
328 385
328 387
328 391
328 395
328 399
328 400
328 401
328 403
329 346
329 356
329 370
329 385
329 395
329 399
329 400
329 401
330 331
330 332
330 335
330 338
330 340
330 341
330 344
330 346
330 351
330 355
330 360
330 364
330 367
330 368
330 373
330 374
330 375
330 380
330 381
330 383
330 387
330 388
330 391
330 401
330 403
331 333
331 334
331 335
331 340
331 341
331 344
331 346
331 355
331 362
331 364
331 367
331 368
331 369
331 370
331 371
331 372
331 373
331 374
331 375
331 378
331 379
331 380
331 383
331 384
331 387
331 391
331 402
331 403
332 338
332 341
332 344
332 346
332 349
332 350
332 351
332 360
332 361
332 369
332 373
332 374
332 378
332 381
332 383
332 390
332 391
332 393
332 394
333 335
333 340
333 346
333 349
333 357
333 362
333 367
333 368
333 370
333 372
333 373
333 383
333 391
333 395
333 400
333 402
333 403
334 335
334 340
334 355
334 357
334 367
334 371
334 378
334 381
334 393
334 403
335 340
335 344
335 346
335 355
335 356
335 360
335 366
335 369
335 370
335 371
335 373
335 374
335 378
335 379
335 380
335 381
335 383
335 384
335 387
335 391
335 401
335 402
335 403
336 337
336 338
336 342
336 348
336 351
336 353
336 359
336 368
336 383
337 338
337 350
337 351
337 353
337 354
337 359
337 365
337 368
337 373
337 376
337 383
337 388
338 342
338 351
338 353
338 354
338 361
338 367
338 368
338 373
338 376
338 380
338 383
338 386
338 388
340 341
340 346
340 355
340 356
340 362
340 363
340 364
340 366
340 370
340 371
340 373
340 375
340 379
340 380
340 383
340 384
340 385
340 387
340 388
340 391
340 403
341 344
341 349
341 355
341 363
341 370
341 371
341 373
341 374
341 391
341 395
341 401
342 344
342 350
342 351
342 357
342 368
342 372
342 375
342 378
342 383
342 387
342 392
342 396
344 346
344 349
344 357
344 368
344 369
344 373
344 374
344 383
344 393
344 394
344 395
345 362
345 378
345 380
345 383
345 394
346 349
346 350
346 355
346 356
346 357
346 358
346 362
346 363
346 367
346 368
346 369
346 370
346 371
346 373
346 374
346 375
346 378
346 383
346 385
346 387
346 390
346 391
346 394
346 398
346 400
346 402
346 403
348 378
348 390
349 357
349 367
349 369
349 378
349 383
349 391
349 393
349 398
349 403
350 351
350 354
350 358
350 359
350 361
350 363
350 365
350 367
350 368
350 372
350 373
350 375
350 376
350 377
350 378
350 380
350 382
350 383
350 387
350 388
350 390
350 391
350 392
350 396
350 402
351 353
351 354
351 358
351 359
351 361
351 365
351 368
351 372
351 373
351 376
351 377
351 378
351 383
351 388
351 390
351 391
351 392
351 396
351 403
353 354
353 359
353 361
353 362
353 373
353 377
353 380
353 383
353 396
353 402
354 358
354 359
354 365
354 372
354 376
354 382
354 392
355 362
355 371
355 373
355 374
355 375
355 383
355 387
355 391
355 394
356 371
356 373
356 384
356 385
356 391
356 395
356 399
356 400
356 401
357 373
357 378
357 383
357 391
357 392
357 393
357 400
357 403
358 359
358 365
358 368
358 372
358 373
358 375
358 376
358 377
358 380
358 383
358 387
358 388
358 392
358 396
359 365
359 367
359 372
359 376
359 382
359 392
359 396
360 367
360 383
360 402
360 403
361 365
361 367
361 368
361 372
361 373
361 377
361 380
361 383
361 388
361 390
361 396
361 403
362 363
362 364
362 368
362 370
362 371
362 373
362 374
362 375
362 380
362 383
362 385
362 387
362 388
362 391
362 395
362 402
362 403
363 368
363 370
363 371
363 373
363 375
363 385
363 387
363 391
364 368
364 373
364 375
364 380
364 381
364 383
364 386
364 388
364 391
365 368
365 372
365 376
365 382
365 388
365 392
365 396
366 369
366 371
366 374
366 379
366 384
366 401
367 368
367 372
367 373
367 378
367 383
367 387
367 390
367 391
367 393
367 395
367 403
368 369
368 372
368 373
368 375
368 377
368 380
368 383
368 385
368 387
368 388
368 391
368 395
368 399
368 403
369 371
369 373
369 378
369 383
369 384
369 391
369 395
369 398
370 371
370 373
370 380
370 383
370 384
370 385
370 391
370 395
370 400
370 403
371 373
371 379
371 384
371 385
371 391
371 395
371 400
371 401
371 403
372 373
372 375
372 376
372 378
372 382
372 383
372 387
372 388
372 392
372 396
372 403
373 375
373 377
373 378
373 380
373 383
373 385
373 387
373 388
373 390
373 391
373 395
373 396
373 399
373 401
373 402
373 403
374 384
374 401
374 403
375 380
375 381
375 383
375 385
375 387
375 388
375 391
375 392
376 382
376 397
377 378
377 380
377 383
377 390
377 391
377 396
377 402
378 383
378 390
378 391
378 393
378 394
378 396
378 398
378 402
378 403
379 384
380 383
380 386
380 387
380 388
380 391
380 394
380 402
381 383
382 392
383 387
383 388
383 390
383 391
383 392
383 394
383 396
383 402
383 403
384 395
384 399
384 401
385 387
385 391
385 395
385 399
385 400
386 387
386 388
386 394
387 388
387 391
387 392
387 394
387 396
387 402
388 390
388 392
388 394
388 396
390 391
390 392
390 403
391 398
391 399
391 400
391 402
391 403
392 396
393 403
394 402
395 399
395 400
395 401
395 403
398 402
399 401
401 403
404 411
404 424
404 428
404 431
404 432
405 417
405 424
406 417
408 411
408 423
408 428
409 422
409 433
411 415
411 423
411 424
411 426
411 428
411 433
411 434
411 436
412 413
412 417
412 424
412 428
412 437
413 428
415 422
415 423
415 426
415 428
415 431
415 434
416 422
416 432
416 436
417 424
417 434
418 423
418 426
420 423
420 426
420 433
421 426
422 426
422 428
422 433
422 436
423 426
423 428
423 434
423 436
424 428
426 427
426 428
426 434
428 431
428 432
428 434
428 437
431 432
433 436
439 450
439 458
439 463
439 465
439 468
439 470
439 471
439 473
439 480
439 485
439 487
439 496
439 497
440 450
440 463
440 465
440 468
440 473
440 474
440 487
441 447
441 461
441 473
441 489
442 447
442 456
442 467
442 470
442 473
442 480
442 484
442 490
443 444
443 447
443 454
443 458
444 454
444 486
445 447
445 451
445 457
445 459
445 467
445 469
445 483
445 486
446 447
446 456
446 457
446 459
446 467
446 474
447 454
447 456
447 457
447 458
447 463
447 466
447 467
447 468
447 469
447 474
447 475
447 476
447 479
447 482
447 487
447 490
448 455
450 458
450 463
450 465
450 466
450 468
450 470
450 485
450 487
450 496
450 497
451 486
453 488
454 456
454 461
454 466
454 473
454 476
454 482
454 496
455 481
456 467
456 470
456 474
456 482
456 490
456 493
456 496
457 461
457 467
457 469
458 461
458 463
458 465
458 466
458 468
458 470
458 471
458 480
458 484
458 485
458 487
458 496
459 467
459 474
460 469
461 466
461 469
461 471
461 482
461 487
461 493
461 496
463 465
463 466
463 468
463 470
463 473
463 474
463 482
463 485
463 487
463 496
463 497
465 466
465 473
465 485
465 487
465 495
465 496
466 468
466 473
466 475
466 482
466 485
466 487
466 490
466 496
467 469
467 470
467 473
467 474
467 475
467 490
468 485
468 487
468 496
468 497
469 483
470 471
470 473
470 480
470 484
470 490
470 496
471 480
471 485
471 487
471 489
471 496
473 474
473 477
473 482
473 485
473 496
474 475
474 477
474 483
474 486
474 490
475 479
475 483
475 490
475 495
476 480
476 487
476 489
479 496
480 484
480 496
481 483
481 491
482 496
483 486
483 494
484 490
484 496
485 496
487 496
489 495
493 496
496 497
498 513
498 515
498 518
498 520
498 527
498 539
498 540
498 549
498 559
498 562
498 563
498 566
498 573
498 574
498 575
498 579
498 583
498 587
498 594
498 595
498 598
498 600
498 611
498 614
498 616
498 618
499 501
499 503
499 514
499 515
499 518
499 519
499 527
499 532
499 535
499 538
499 539
499 545
499 546
499 547
499 549
499 552
499 562
499 568
499 570
499 575
499 577
499 582
499 585
499 587
499 594
499 598
499 600
499 603
499 604
499 608
499 614
499 616
499 618
500 506
500 520
500 557
500 563
500 567
500 576
500 580
500 582
500 593
500 599
500 609
500 619
501 503
501 510
501 514
501 515
501 518
501 527
501 538
501 539
501 540
501 546
501 549
501 552
501 557
501 562
501 563
501 566
501 567
501 568
501 570
501 575
501 576
501 582
501 583
501 587
501 589
501 594
501 598
501 600
501 601
501 603
501 608
501 614
501 616
501 618
502 504
502 505
502 508
502 509
502 511
502 516
502 520
502 522
502 529
502 530
502 534
502 544
502 555
502 556
502 557
502 558
502 560
502 563
502 567
502 571
502 574
502 576
502 578
502 586
502 590
502 596
502 599
502 602
502 611
502 613
502 619
503 514
503 515
503 518
503 519
503 527
503 532
503 535
503 538
503 539
503 540
503 545
503 546
503 547
503 549
503 552
503 562
503 566
503 573
503 575
503 577
503 582
503 585
503 587
503 598
503 600
503 604
503 608
503 614
503 618
504 556
504 578
504 613
505 506
505 508
505 517
505 520
505 528
505 531
505 534
505 539
505 540
505 542
505 545
505 555
505 557
505 560
505 563
505 565
505 566
505 567
505 569
505 572
505 574
505 576
505 586
505 587
505 590
505 595
505 596
505 599
505 606
505 607
505 609
505 610
505 611
505 614
505 619
506 508
506 509
506 511
506 512
506 513
506 515
506 517
506 518
506 519
506 520
506 527
506 531
506 532
506 533
506 534
506 539
506 540
506 542
506 545
506 548
506 549
506 555
506 557
506 558
506 559
506 562
506 563
506 565
506 566
506 568
506 569
506 572
506 573
506 574
506 575
506 579
506 580
506 582
506 584
506 586
506 587
506 590
506 593
506 594
506 595
506 596
506 597
506 599
506 600
506 604
506 607
506 608
506 609
506 610
506 611
506 614
506 616
506 618
506 619
507 516
507 531
507 561
507 578
507 586
507 595
507 607
507 613
508 509
508 511
508 517
508 520
508 522
508 528
508 530
508 533
508 534
508 541
508 555
508 556
508 557
508 558
508 563
508 565
508 572
508 574
508 576
508 580
508 586
508 593
508 599
508 607
508 609
508 613
508 619
509 511
509 522
509 528
509 530
509 533
509 541
509 554
509 556
509 557
509 565
509 581
509 593
509 619
510 513
510 514
510 518
510 531
510 539
510 540
510 553
510 557
510 559
510 560
510 563
510 570
510 574
510 575
510 576
510 580
510 583
510 587
510 589
510 595
510 601
510 603
510 608
510 614
510 618
511 516
511 517
511 522
511 530
511 534
511 542
511 554
511 557
511 558
511 565
511 572
511 581
511 586
511 599
511 609
511 611
511 613
511 615
511 619
512 513
512 527
512 547
512 549
512 559
512 560
512 562
512 569
512 579
512 587
512 595
512 601
512 610
512 614
512 615
512 616
513 515
513 520
513 527
513 531
513 539
513 540
513 549
513 555
513 557
513 558
513 559
513 560
513 562
513 563
513 573
513 574
513 575
513 578
513 579
513 580
513 582
513 583
513 586
513 587
513 590
513 594
513 595
513 596
513 597
513 601
513 607
513 608
513 609
513 610
513 611
513 614
513 615
513 616
513 618
514 515
514 518
514 527
514 532
514 535
514 538
514 540
514 545
514 546
514 549
514 552
514 562
514 566
514 568
514 570
514 575
514 582
514 587
514 601
514 603
514 604
514 608
514 614
514 616
514 618
515 518
515 519
515 520
515 527
515 532
515 535
515 538
515 539
515 540
515 545
515 546
515 547
515 549
515 551
515 552
515 555
515 557
515 562
515 563
515 566
515 568
515 569
515 570
515 573
515 575
515 577
515 579
515 582
515 583
515 585
515 587
515 590
515 591
515 594
515 598
515 600
515 601
515 603
515 604
515 608
515 610
515 614
515 616
515 618
516 529
516 544
516 557
516 558
516 560
516 561
516 579
516 586
516 613
517 519
517 520
517 521
517 531
517 534
517 539
517 540
517 542
517 557
517 560
517 562
517 563
517 565
517 567
517 569
517 572
517 574
517 575
517 576
517 580
517 586
517 587
517 591
517 596
517 599
517 607
517 611
517 613
517 614
517 615
517 619
518 519
518 520
518 527
518 532
518 535
518 538
518 539
518 540
518 545
518 546
518 547
518 548
518 549
518 551
518 552
518 555
518 557
518 559
518 562
518 563
518 566
518 568
518 570
518 573
518 574
518 575
518 577
518 582
518 583
518 585
518 586
518 587
518 591
518 594
518 598
518 600
518 601
518 603
518 604
518 608
518 610
518 611
518 614
518 616
518 618
519 520
519 527
519 532
519 538
519 539
519 540
519 545
519 546
519 548
519 549
519 552
519 557
519 562
519 563
519 566
519 568
519 573
519 580
519 582
519 584
519 585
519 586
519 587
519 590
519 591
519 593
519 594
519 596
519 598
519 600
519 601
519 603
519 604
519 608
519 614
519 618
519 619
520 533
520 534
520 539
520 540
520 542
520 548
520 549
520 555
520 556
520 557
520 562
520 563
520 565
520 566
520 567
520 569
520 572
520 573
520 574
520 575
520 576
520 578
520 579
520 580
520 582
520 584
520 586
520 587
520 590
520 591
520 593
520 596
520 598
520 599
520 600
520 604
520 610
520 611
520 614
520 618
520 619
522 524
522 530
522 556
522 557
522 580
522 602
522 613
522 619
523 571
524 530
524 561
524 581
525 588
526 556
526 602
527 532
527 538
527 539
527 540
527 545
527 547
527 549
527 552
527 559
527 562
527 566
527 568
527 573
527 575
527 582
527 587
527 594
527 595
527 601
527 603
527 607
527 608
527 611
527 614
527 616
527 618
528 534
528 576
528 599
528 610
528 619
529 560
529 563
529 571
529 576
529 602
529 613
530 541
530 556
530 563
530 571
530 581
530 593
530 599
530 619
531 539
531 540
531 542
531 544
531 553
531 555
531 557
531 558
531 559
531 560
531 563
531 567
531 575
531 576
531 580
531 586
531 587
531 589
531 595
531 597
531 599
531 601
531 611
531 614
531 619
532 535
532 538
532 539
532 540
532 545
532 546
532 547
532 549
532 552
532 557
532 563
532 566
532 568
532 573
532 580
532 582
532 585
532 586
532 590
532 594
532 596
532 598
532 604
532 608
533 534
533 540
533 548
533 555
533 563
533 584
533 590
533 593
533 596
533 599
533 619
534 563
534 565
534 569
534 572
534 574
534 575
534 576
534 579
534 584
534 586
534 590
534 594
534 596
534 599
534 607
534 609
534 611
534 619
535 538
535 547
535 549
535 552
535 566
535 583
535 598
535 600
535 604
535 608
535 618
536 556
537 569
537 571
537 599
537 610
538 539
538 540
538 545
538 546
538 549
538 552
538 562
538 568
538 575
538 577
538 582
538 585
538 587
538 598
538 600
538 604
538 608
538 614
538 618
539 540
539 542
539 545
539 548
539 549
539 551
539 552
539 555
539 557
539 559
539 562
539 563
539 566
539 568
539 569
539 572
539 573
539 574
539 575
539 579
539 580
539 582
539 583
539 584
539 586
539 587
539 590
539 591
539 594
539 595
539 596
539 597
539 598
539 599
539 600
539 601
539 604
539 608
539 610
539 611
539 614
539 616
539 618
539 619
540 542
540 545
540 546
540 548
540 549
540 555
540 557
540 559
540 560
540 562
540 563
540 566
540 568
540 569
540 573
540 575
540 576
540 579
540 580
540 582
540 584
540 586
540 587
540 589
540 590
540 591
540 593
540 594
540 595
540 596
540 598
540 599
540 600
540 601
540 603
540 604
540 607
540 608
540 610
540 611
540 614
540 616
540 618
540 619
542 557
542 558
542 560
542 563
542 567
542 568
542 569
542 575
542 576
542 578
542 579
542 580
542 586
542 591
542 596
542 597
542 599
542 601
542 609
542 610
542 611
542 613
542 614
542 615
542 619
544 557
544 613
545 548
545 549
545 552
545 562
545 566
545 568
545 573
545 575
545 582
545 587
545 594
545 596
545 598
545 604
545 614
545 616
546 549
546 552
546 557
546 568
546 570
546 575
546 587
546 589
546 601
546 603
546 604
546 608
547 549
547 552
547 598
547 608
548 549
548 563
548 568
548 573
548 575
548 580
548 582
548 584
548 585
548 587
548 593
548 600
548 604
548 618
548 619
549 552
549 557
549 559
549 562
549 563
549 566
549 568
549 569
549 573
549 574
549 575
549 579
549 580
549 582
549 583
549 586
549 587
549 590
549 591
549 594
549 595
549 596
549 598
549 600
549 601
549 603
549 604
549 608
549 610
549 611
549 614
549 615
549 616
549 618
551 552
551 601
552 562
552 566
552 568
552 569
552 570
552 575
552 577
552 582
552 585
552 587
552 594
552 598
552 600
552 601
552 603
552 604
552 608
552 610
552 614
552 616
552 618
553 557
553 560
553 576
553 580
554 590
554 593
554 619
555 557
555 563
555 566
555 567
555 573
555 575
555 580
555 582
555 584
555 586
555 590
555 593
555 594
555 596
555 598
555 599
555 609
555 611
555 614
555 618
555 619
556 557
556 558
556 565
556 574
556 581
556 602
556 613
556 619
557 558
557 560
557 563
557 566
557 567
557 568
557 572
557 574
557 575
557 576
557 578
557 579
557 580
557 584
557 586
557 587
557 590
557 591
557 594
557 596
557 597
557 598
557 599
557 600
557 601
557 604
557 606
557 608
557 610
557 611
557 613
557 614
557 615
557 618
557 619
558 560
558 574
558 576
558 578
558 579
558 580
558 586
558 597
558 599
558 609
558 611
558 613
559 560
559 563
559 564
559 574
559 575
559 579
559 580
559 584
559 586
559 587
559 590
559 594
559 595
559 597
559 608
559 609
559 610
559 611
559 614
559 615
559 616
559 618
560 567
560 575
560 576
560 578
560 579
560 586
560 587
560 597
560 599
560 601
560 603
560 607
560 609
560 610
560 611
560 616
561 581
561 607
561 612
562 566
562 569
562 572
562 573
562 575
562 582
562 583
562 587
562 591
562 594
562 596
562 598
562 601
562 603
562 606
562 608
562 610
562 611
562 614
562 615
562 616
562 618
563 565
563 566
563 567
563 568
563 569
563 572
563 573
563 574
563 575
563 576
563 579
563 580
563 582
563 584
563 585
563 586
563 587
563 590
563 593
563 594
563 595
563 596
563 598
563 599
563 600
563 601
563 604
563 607
563 609
563 610
563 611
563 614
563 616
563 618
563 619
564 569
564 578
564 586
564 597
564 606
564 610
564 611
564 615
565 572
565 574
565 586
565 619
566 568
566 569
566 573
566 582
566 587
566 591
566 594
566 596
566 598
566 599
566 600
566 603
566 604
566 608
566 610
566 614
566 616
566 618
567 571
567 576
567 578
567 594
567 597
567 599
567 607
567 610
567 619
568 573
568 575
568 580
568 582
568 584
568 585
568 587
568 594
568 600
568 603
568 604
568 608
568 610
568 618
569 573
569 575
569 576
569 579
569 580
569 587
569 590
569 591
569 594
569 596
569 599
569 604
569 607
569 610
569 614
570 603
570 604
570 608
570 618
571 576
571 599
571 602
571 610
571 613
572 574
572 576
572 584
572 586
572 596
572 599
572 607
572 611
572 619
572 620
573 575
573 582
573 587
573 594
573 595
573 596
573 598
573 604
573 608
573 614
573 618
574 576
574 578
574 579
574 580
574 583
574 586
574 587
574 595
574 596
574 598
574 599
574 600
574 607
574 610
574 611
574 615
574 618
574 619
575 576
575 579
575 580
575 582
575 584
575 587
575 589
575 590
575 594
575 595
575 596
575 597
575 598
575 599
575 600
575 601
575 603
575 604
575 606
575 607
575 608
575 610
575 611
575 614
575 616
575 618
576 578
576 580
576 581
576 584
576 586
576 587
576 588
576 598
576 599
576 602
576 603
576 606
576 607
576 610
576 613
576 614
576 619
578 579
578 586
578 591
578 597
578 599
578 606
578 611
578 613
578 615
578 619
579 580
579 586
579 587
579 590
579 591
579 594
579 595
579 596
579 597
579 598
579 601
579 607
579 610
579 611
579 614
579 615
579 616
579 619
580 582
580 584
580 586
580 587
580 588
580 589
580 590
580 593
580 594
580 596
580 599
580 603
580 604
580 608
580 609
580 610
580 619
581 602
581 613
582 584
582 585
582 587
582 590
582 593
582 594
582 596
582 598
582 599
582 604
582 608
582 618
582 619
583 598
583 601
583 608
583 618
584 586
584 587
584 588
584 590
584 593
584 594
584 596
584 599
584 604
584 609
584 610
584 611
584 619
585 594
585 604
586 590
586 594
586 595
586 596
586 597
586 599
586 602
586 604
586 607
586 608
586 609
586 611
586 613
586 614
586 615
586 619
587 589
587 591
587 594
587 595
587 596
587 598
587 599
587 600
587 601
587 603
587 604
587 606
587 607
587 608
587 610
587 611
587 614
587 615
587 616
587 618
587 619
588 605
588 619
589 603
590 593
590 594
590 595
590 596
590 599
590 601
590 609
590 614
590 616
590 619
591 596
591 598
591 599
591 601
591 604
591 610
591 611
591 614
591 615
591 619
592 613
593 596
593 599
593 610
593 619
594 596
594 597
594 599
594 600
594 601
594 604
594 608
594 609
594 611
594 614
594 616
594 618
595 596
595 607
595 614
595 616
595 618
596 598
596 599
596 601
596 606
596 607
596 609
596 610
596 611
596 614
596 616
596 619
597 599
597 601
597 611
598 600
598 603
598 608
598 610
598 614
598 616
598 618
599 604
599 606
599 607
599 609
599 610
599 619
600 604
600 608
600 614
600 618
601 603
601 608
601 611
601 614
601 615
601 616
602 613
603 608
603 610
603 614
603 616
603 618
604 608
604 614
604 618
604 619
605 613
605 619
606 607
606 610
606 611
606 614
606 615
607 609
607 610
607 611
607 614
608 614
608 618
609 616
609 619
610 611
610 614
610 616
611 614
611 615
611 616
611 619
614 616
614 618
615 616
615 619
616 618
